
  22   10
  10   10   10   10   10   10   10   10   10   10

   0   0   0   0   0   0   0   0   0   0   0  15 2 3 4 5 6 7 8 9 10 11 12 13 19 20 21 
   1  10  10  10  10  10  10  10  10  10  10   3 17 15 14 
   7  10  10  10  10  10  10  10  10  10  10   3 17 15 14 
   3  10  10  10  10  10  10  10  10  10  10   1 14 
   5  10  10  10  10  10  10  10  10  10  10   1 14 
  10  10  10  10  10  10  10  10  10  10  10   1 14 
  10  10  10  10  10  10  10  10  10  10  10   1 16 
   4  10  10  10  10  10  10  10  10  10  10   1 18 
   2  10  10  10  10  10  10  10  10  10  10   1 16 
   6  10  10  10  10  10  10  10  10  10  10   1 15 
   4  10  10  10  10  10  10  10  10  10  10   1 15 
   6  10  10  10  10  10  10  10  10  10  10   1 14 
   3  10  10  10  10  10  10  10  10  10  10   1 14 
   4  10  10  10  10  10  10  10  10  10  10   1 22
   3  10  10  10  10  10  10  10  10  10  10   1 22
   2  10  10  10  10  10  10  10  10  10  10   1 22
   7  10  10  10  10  10  10  10  10  10  10   1 22
  10  10  10  10  10  10  10  10  10  10  10   1 22
   2  10  10  10  10  10  10  10  10  10  10   1 22
   5  10  10  10  10  10  10  10  10  10  10   1 22
   1  10  10  10  10  10  10  10  10  10  10   1 22
   0   0   0   0   0   0   0   0   0   0   0   0 
